&INPUTPP
   outdir = './tmp/'
   prefix = 'silicon'
   calculation = 'eps'
/

&ENERGY_GRID
   smeartype = 'gaussian'
   intersmear = 0.2
   wmin = 0.0
   wmax = 30.0
   nw = 500
/
