&CONTROL
    calculation = 'scf'
    prefix = 'silicon'
    outdir = './output/test/'
    pseudo_dir = './pseudo/'
    tstress = .true.
    tprnfor = .true.
/

&SYSTEM
    ibrav = 2
    celldm(1) = 5.431
    nat = 2
    ntyp = 1
    ecutwfc = 30
    ecutrho = 240
    occupations = 'smearing'
    smearing = 'gaussian'
    degauss = 0.01
/

&ELECTRONS
    conv_thr = 1.0d-8
    mixing_beta = 0.7
/

ATOMIC_SPECIES
  Si  28.085  Si.pz-vbc.UPF

ATOMIC_POSITIONS (angstrom)
  Si  0.000000  0.000000  0.000000
  Si  2.715500  2.715500  2.715500

K_POINTS automatic
  4 4 4 0 0 0
