&CONTROL
   calculation      = 'scf'
   restart_mode     = 'from_scratch'
   outdir           = './out/'
   prefix           = 'gen_13'
   pseudo_dir       = './pseudo/'
/
&SYSTEM
   ecutwfc          = 60
   ecutrho          = 480
   occupations      = 'smearing'
   degauss          = 0.01
   smearing         = 'gaussian'
   ntyp             = 4
   nat              = 14
   ibrav            = 0
/
&ELECTRONS
   conv_thr         = 1e-06
/
&IONS
/
&CELL
/
&FCP
/
&RISM
/
ATOMIC_SPECIES
Li 6.94 Li.pbe-n-kjpaw_psl.1.0.0.UPF
Fe 55.845 Fe.pbe-spn-kjpaw_psl.1.0.0.UPF
O 15.999 O.pbe-n-kjpaw_psl.1.0.0.UPF
Mn 54.938044 Mn.pbe-spn-kjpaw_psl.1.0.0.UPF

K_POINTS gamma

CELL_PARAMETERS angstrom
9.49540000000000 0.00000000000000 0.00000000000000
9.09786451502626 2.71872808979234 0.00000000000000
0.06300034595512 0.00921198157948 4.92488844399596

ATOMIC_POSITIONS angstrom
Li 7.4179793945 1.0846653062 4.6228942846  
Fe 5.3986067284 0.7893903594 1.5593181791  
Li 0.5576915361 0.0815462849 0.4277265614  
O 3.8561038193 0.5638438458 0.4396940403  
O 8.9373324575 1.3068268232 1.4183186230  
Mn 2.9564771305 0.4322994176 3.4853928007  
O 6.7139171542 0.9817165321 2.8692400075  
O 13.3654605296 1.9543126999 2.7084916487  
Fe 17.0856472209 2.4982825901 2.2033950898  
Fe 10.1766912124 1.4880472570 2.9100673327  
Fe 12.1459600862 1.7759959709 1.3156346989  
O 11.2856182461 1.6501958175 4.4526901400  
O 15.7035665935 2.2961932034 0.8192059438  
O 18.3283613616 2.6799936522 3.6231419305  

