&CONTROL
calculation = 'scf',
pseudo_dir = './pseudo',
outdir = './output',
/
&SYSTEM
   ibrav = 2, celldm(1) = 10.2, nat = 2, ntyp = 1,
   ecutwfc = 30.0,
/
&ELECTRONS
/
ATOMIC_SPECIES
   Si 28.086 Si.pz-vbc.UPF
ATOMIC_POSITIONS crystal
   Si 0.0 0.0 0.0
   Si 0.25 0.25 0.25
K_POINTS automatic
   4 4 4 0 0 0